logs/full/max/full-05-30-2.lp
\ LP format - for model browsing. Use MPS format to capture full model detail.
Maximize
  x0,1_2 + x0,1_13 + x0,1_20 + x0,1_22 + x0,1_29 + x0,1_42 + x0,1_49
   + x0,1_51 + x0,1_62 + x0,1_64 + x0,2_2 + x0,2_13 + x0,2_20 + x0,2_22
   + x0,2_29 + x0,2_42 + x0,2_49 + x0,2_51 + x0,2_62 + x0,2_64 + x0,3_2
   + x0,3_13 + x0,3_20 + x0,3_22 + x0,3_29 + x0,3_42 + x0,3_49 + x0,3_51
   + x0,3_62 + x0,3_64 + x0,4_2 + x0,4_13 + x0,4_20 + x0,4_22 + x0,4_29
   + x0,4_42 + x0,4_49 + x0,4_51 + x0,4_62 + x0,4_64 + x0,5_2 + x0,5_13
   + x0,5_20 + x0,5_22 + x0,5_29 + x0,5_42 + x0,5_49 + x0,5_51 + x0,5_62
   + x0,5_64 + x1,2_2 + x1,2_13 + x1,2_20 + x1,2_22 + x1,2_29 + x1,2_42
   + x1,2_49 + x1,2_51 + x1,2_62 + x1,2_64 + x1,3_2 + x1,3_13 + x1,3_20
   + x1,3_22 + x1,3_29 + x1,3_42 + x1,3_49 + x1,3_51 + x1,3_62 + x1,3_64
   + x1,4_2 + x1,4_13 + x1,4_20 + x1,4_22 + x1,4_29 + x1,4_42 + x1,4_49
   + x1,4_51 + x1,4_62 + x1,4_64 + x1,5_2 + x1,5_13 + x1,5_20 + x1,5_22
   + x1,5_29 + x1,5_42 + x1,5_49 + x1,5_51 + x1,5_62 + x1,5_64 + x2,3_2
   + x2,3_13 + x2,3_20 + x2,3_22 + x2,3_29 + x2,3_42 + x2,3_49 + x2,3_51
   + x2,3_62 + x2,3_64 + x2,4_2 + x2,4_13 + x2,4_20 + x2,4_22 + x2,4_29
   + x2,4_42 + x2,4_49 + x2,4_51 + x2,4_62 + x2,4_64 + x2,5_2 + x2,5_13
   + x2,5_20 + x2,5_22 + x2,5_29 + x2,5_42 + x2,5_49 + x2,5_51 + x2,5_62
   + x2,5_64 + x3,4_2 + x3,4_13 + x3,4_20 + x3,4_22 + x3,4_29 + x3,4_42
   + x3,4_49 + x3,4_51 + x3,4_62 + x3,4_64 + x3,5_2 + x3,5_13 + x3,5_20
   + x3,5_22 + x3,5_29 + x3,5_42 + x3,5_49 + x3,5_51 + x3,5_62 + x3,5_64
   + x4,5_2 + x4,5_13 + x4,5_20 + x4,5_22 + x4,5_29 + x4,5_42 + x4,5_49
   + x4,5_51 + x4,5_62 + x4,5_64
Subject To
 R0: x0,1_2 + x0,2_2 + x0,3_2 + x0,4_2 + x0,5_2 + x1,2_2 + x1,3_2 + x1,4_2
   + x1,5_2 + x2,3_2 + x2,4_2 + x2,5_2 + x3,4_2 + x3,5_2 + x4,5_2 <= 1
 R1: x0,1_13 + x0,2_13 + x0,3_13 + x0,4_13 + x0,5_13 + x1,2_13 + x1,3_13
   + x1,4_13 + x1,5_13 + x2,3_13 + x2,4_13 + x2,5_13 + x3,4_13 + x3,5_13
   + x4,5_13 <= 1
 R2: x0,1_20 + x0,2_20 + x0,3_20 + x0,4_20 + x0,5_20 + x1,2_20 + x1,3_20
   + x1,4_20 + x1,5_20 + x2,3_20 + x2,4_20 + x2,5_20 + x3,4_20 + x3,5_20
   + x4,5_20 <= 1
 R3: x0,1_22 + x0,2_22 + x0,3_22 + x0,4_22 + x0,5_22 + x1,2_22 + x1,3_22
   + x1,4_22 + x1,5_22 + x2,3_22 + x2,4_22 + x2,5_22 + x3,4_22 + x3,5_22
   + x4,5_22 <= 1
 R4: x0,1_29 + x0,2_29 + x0,3_29 + x0,4_29 + x0,5_29 + x1,2_29 + x1,3_29
   + x1,4_29 + x1,5_29 + x2,3_29 + x2,4_29 + x2,5_29 + x3,4_29 + x3,5_29
   + x4,5_29 <= 1
 R5: x0,1_42 + x0,2_42 + x0,3_42 + x0,4_42 + x0,5_42 + x1,2_42 + x1,3_42
   + x1,4_42 + x1,5_42 + x2,3_42 + x2,4_42 + x2,5_42 + x3,4_42 + x3,5_42
   + x4,5_42 <= 1
 R6: x0,1_49 + x0,2_49 + x0,3_49 + x0,4_49 + x0,5_49 + x1,2_49 + x1,3_49
   + x1,4_49 + x1,5_49 + x2,3_49 + x2,4_49 + x2,5_49 + x3,4_49 + x3,5_49
   + x4,5_49 <= 1
 R7: x0,1_51 + x0,2_51 + x0,3_51 + x0,4_51 + x0,5_51 + x1,2_51 + x1,3_51
   + x1,4_51 + x1,5_51 + x2,3_51 + x2,4_51 + x2,5_51 + x3,4_51 + x3,5_51
   + x4,5_51 <= 1
 R8: x0,1_62 + x0,2_62 + x0,3_62 + x0,4_62 + x0,5_62 + x1,2_62 + x1,3_62
   + x1,4_62 + x1,5_62 + x2,3_62 + x2,4_62 + x2,5_62 + x3,4_62 + x3,5_62
   + x4,5_62 <= 1
 R9: x0,1_64 + x0,2_64 + x0,3_64 + x0,4_64 + x0,5_64 + x1,2_64 + x1,3_64
   + x1,4_64 + x1,5_64 + x2,3_64 + x2,4_64 + x2,5_64 + x3,4_64 + x3,5_64
   + x4,5_64 <= 1
 R10: x0,1_2 + x0,1_13 + x0,1_20 + x0,1_22 + x0,1_29 + x0,1_42 + x0,1_49
   + x0,1_51 + x0,1_62 + x0,1_64 <= 1
 R11: x0,2_2 + x0,2_13 + x0,2_20 + x0,2_22 + x0,2_29 + x0,2_42 + x0,2_49
   + x0,2_51 + x0,2_62 + x0,2_64 <= 1
 R12: x0,3_2 + x0,3_13 + x0,3_20 + x0,3_22 + x0,3_29 + x0,3_42 + x0,3_49
   + x0,3_51 + x0,3_62 + x0,3_64 <= 1
 R13: x0,4_2 + x0,4_13 + x0,4_20 + x0,4_22 + x0,4_29 + x0,4_42 + x0,4_49
   + x0,4_51 + x0,4_62 + x0,4_64 <= 1
 R14: x0,5_2 + x0,5_13 + x0,5_20 + x0,5_22 + x0,5_29 + x0,5_42 + x0,5_49
   + x0,5_51 + x0,5_62 + x0,5_64 <= 1
 R15: x1,2_2 + x1,2_13 + x1,2_20 + x1,2_22 + x1,2_29 + x1,2_42 + x1,2_49
   + x1,2_51 + x1,2_62 + x1,2_64 <= 1
 R16: x1,3_2 + x1,3_13 + x1,3_20 + x1,3_22 + x1,3_29 + x1,3_42 + x1,3_49
   + x1,3_51 + x1,3_62 + x1,3_64 <= 1
 R17: x1,4_2 + x1,4_13 + x1,4_20 + x1,4_22 + x1,4_29 + x1,4_42 + x1,4_49
   + x1,4_51 + x1,4_62 + x1,4_64 <= 1
 R18: x1,5_2 + x1,5_13 + x1,5_20 + x1,5_22 + x1,5_29 + x1,5_42 + x1,5_49
   + x1,5_51 + x1,5_62 + x1,5_64 <= 1
 R19: x2,3_2 + x2,3_13 + x2,3_20 + x2,3_22 + x2,3_29 + x2,3_42 + x2,3_49
   + x2,3_51 + x2,3_62 + x2,3_64 <= 1
 R20: x2,4_2 + x2,4_13 + x2,4_20 + x2,4_22 + x2,4_29 + x2,4_42 + x2,4_49
   + x2,4_51 + x2,4_62 + x2,4_64 <= 1
 R21: x2,5_2 + x2,5_13 + x2,5_20 + x2,5_22 + x2,5_29 + x2,5_42 + x2,5_49
   + x2,5_51 + x2,5_62 + x2,5_64 <= 1
 R22: x3,4_2 + x3,4_13 + x3,4_20 + x3,4_22 + x3,4_29 + x3,4_42 + x3,4_49
   + x3,4_51 + x3,4_62 + x3,4_64 <= 1
 R23: x3,5_2 + x3,5_13 + x3,5_20 + x3,5_22 + x3,5_29 + x3,5_42 + x3,5_49
   + x3,5_51 + x3,5_62 + x3,5_64 <= 1
 R24: x4,5_2 + x4,5_13 + x4,5_20 + x4,5_22 + x4,5_29 + x4,5_42 + x4,5_49
   + x4,5_51 + x4,5_62 + x4,5_64 <= 1
 R25: p0 - p1 <= -1
 R26: - 2 x0,1_2 - p0 + p1 >= 0
 R27: 354 x0,1_2 - p0 + p1 <= 356
 R28: - 13 x0,1_13 - p0 + p1 >= 0
 R29: 354 x0,1_13 - p0 + p1 <= 367
 R30: - 20 x0,1_20 - p0 + p1 >= 0
 R31: 354 x0,1_20 - p0 + p1 <= 374
 R32: - 22 x0,1_22 - p0 + p1 >= 0
 R33: 354 x0,1_22 - p0 + p1 <= 376
 R34: - 29 x0,1_29 - p0 + p1 >= 0
 R35: 354 x0,1_29 - p0 + p1 <= 383
 R36: - 42 x0,1_42 - p0 + p1 >= 0
 R37: 354 x0,1_42 - p0 + p1 <= 396
 R38: - 49 x0,1_49 - p0 + p1 >= 0
 R39: 354 x0,1_49 - p0 + p1 <= 403
 R40: - 51 x0,1_51 - p0 + p1 >= 0
 R41: 354 x0,1_51 - p0 + p1 <= 405
 R42: - 62 x0,1_62 - p0 + p1 >= 0
 R43: 354 x0,1_62 - p0 + p1 <= 416
 R44: - 64 x0,1_64 - p0 + p1 >= 0
 R45: 354 x0,1_64 - p0 + p1 <= 418
 R46: p0 - p2 <= -1
 R47: - 2 x0,2_2 - p0 + p2 >= 0
 R48: 354 x0,2_2 - p0 + p2 <= 356
 R49: - 13 x0,2_13 - p0 + p2 >= 0
 R50: 354 x0,2_13 - p0 + p2 <= 367
 R51: - 20 x0,2_20 - p0 + p2 >= 0
 R52: 354 x0,2_20 - p0 + p2 <= 374
 R53: - 22 x0,2_22 - p0 + p2 >= 0
 R54: 354 x0,2_22 - p0 + p2 <= 376
 R55: - 29 x0,2_29 - p0 + p2 >= 0
 R56: 354 x0,2_29 - p0 + p2 <= 383
 R57: - 42 x0,2_42 - p0 + p2 >= 0
 R58: 354 x0,2_42 - p0 + p2 <= 396
 R59: - 49 x0,2_49 - p0 + p2 >= 0
 R60: 354 x0,2_49 - p0 + p2 <= 403
 R61: - 51 x0,2_51 - p0 + p2 >= 0
 R62: 354 x0,2_51 - p0 + p2 <= 405
 R63: - 62 x0,2_62 - p0 + p2 >= 0
 R64: 354 x0,2_62 - p0 + p2 <= 416
 R65: - 64 x0,2_64 - p0 + p2 >= 0
 R66: 354 x0,2_64 - p0 + p2 <= 418
 R67: p0 - p3 <= -1
 R68: - 2 x0,3_2 - p0 + p3 >= 0
 R69: 354 x0,3_2 - p0 + p3 <= 356
 R70: - 13 x0,3_13 - p0 + p3 >= 0
 R71: 354 x0,3_13 - p0 + p3 <= 367
 R72: - 20 x0,3_20 - p0 + p3 >= 0
 R73: 354 x0,3_20 - p0 + p3 <= 374
 R74: - 22 x0,3_22 - p0 + p3 >= 0
 R75: 354 x0,3_22 - p0 + p3 <= 376
 R76: - 29 x0,3_29 - p0 + p3 >= 0
 R77: 354 x0,3_29 - p0 + p3 <= 383
 R78: - 42 x0,3_42 - p0 + p3 >= 0
 R79: 354 x0,3_42 - p0 + p3 <= 396
 R80: - 49 x0,3_49 - p0 + p3 >= 0
 R81: 354 x0,3_49 - p0 + p3 <= 403
 R82: - 51 x0,3_51 - p0 + p3 >= 0
 R83: 354 x0,3_51 - p0 + p3 <= 405
 R84: - 62 x0,3_62 - p0 + p3 >= 0
 R85: 354 x0,3_62 - p0 + p3 <= 416
 R86: - 64 x0,3_64 - p0 + p3 >= 0
 R87: 354 x0,3_64 - p0 + p3 <= 418
 R88: p0 - p4 <= -1
 R89: - 2 x0,4_2 - p0 + p4 >= 0
 R90: 354 x0,4_2 - p0 + p4 <= 356
 R91: - 13 x0,4_13 - p0 + p4 >= 0
 R92: 354 x0,4_13 - p0 + p4 <= 367
 R93: - 20 x0,4_20 - p0 + p4 >= 0
 R94: 354 x0,4_20 - p0 + p4 <= 374
 R95: - 22 x0,4_22 - p0 + p4 >= 0
 R96: 354 x0,4_22 - p0 + p4 <= 376
 R97: - 29 x0,4_29 - p0 + p4 >= 0
 R98: 354 x0,4_29 - p0 + p4 <= 383
 R99: - 42 x0,4_42 - p0 + p4 >= 0
 R100: 354 x0,4_42 - p0 + p4 <= 396
 R101: - 49 x0,4_49 - p0 + p4 >= 0
 R102: 354 x0,4_49 - p0 + p4 <= 403
 R103: - 51 x0,4_51 - p0 + p4 >= 0
 R104: 354 x0,4_51 - p0 + p4 <= 405
 R105: - 62 x0,4_62 - p0 + p4 >= 0
 R106: 354 x0,4_62 - p0 + p4 <= 416
 R107: - 64 x0,4_64 - p0 + p4 >= 0
 R108: 354 x0,4_64 - p0 + p4 <= 418
 R109: p0 - p5 <= -1
 R110: - 2 x0,5_2 - p0 + p5 >= 0
 R111: 354 x0,5_2 - p0 + p5 <= 356
 R112: - 13 x0,5_13 - p0 + p5 >= 0
 R113: 354 x0,5_13 - p0 + p5 <= 367
 R114: - 20 x0,5_20 - p0 + p5 >= 0
 R115: 354 x0,5_20 - p0 + p5 <= 374
 R116: - 22 x0,5_22 - p0 + p5 >= 0
 R117: 354 x0,5_22 - p0 + p5 <= 376
 R118: - 29 x0,5_29 - p0 + p5 >= 0
 R119: 354 x0,5_29 - p0 + p5 <= 383
 R120: - 42 x0,5_42 - p0 + p5 >= 0
 R121: 354 x0,5_42 - p0 + p5 <= 396
 R122: - 49 x0,5_49 - p0 + p5 >= 0
 R123: 354 x0,5_49 - p0 + p5 <= 403
 R124: - 51 x0,5_51 - p0 + p5 >= 0
 R125: 354 x0,5_51 - p0 + p5 <= 405
 R126: - 62 x0,5_62 - p0 + p5 >= 0
 R127: 354 x0,5_62 - p0 + p5 <= 416
 R128: - 64 x0,5_64 - p0 + p5 >= 0
 R129: 354 x0,5_64 - p0 + p5 <= 418
 R130: p1 - p2 <= -1
 R131: - 2 x1,2_2 - p1 + p2 >= 0
 R132: 354 x1,2_2 - p1 + p2 <= 356
 R133: - 13 x1,2_13 - p1 + p2 >= 0
 R134: 354 x1,2_13 - p1 + p2 <= 367
 R135: - 20 x1,2_20 - p1 + p2 >= 0
 R136: 354 x1,2_20 - p1 + p2 <= 374
 R137: - 22 x1,2_22 - p1 + p2 >= 0
 R138: 354 x1,2_22 - p1 + p2 <= 376
 R139: - 29 x1,2_29 - p1 + p2 >= 0
 R140: 354 x1,2_29 - p1 + p2 <= 383
 R141: - 42 x1,2_42 - p1 + p2 >= 0
 R142: 354 x1,2_42 - p1 + p2 <= 396
 R143: - 49 x1,2_49 - p1 + p2 >= 0
 R144: 354 x1,2_49 - p1 + p2 <= 403
 R145: - 51 x1,2_51 - p1 + p2 >= 0
 R146: 354 x1,2_51 - p1 + p2 <= 405
 R147: - 62 x1,2_62 - p1 + p2 >= 0
 R148: 354 x1,2_62 - p1 + p2 <= 416
 R149: - 64 x1,2_64 - p1 + p2 >= 0
 R150: 354 x1,2_64 - p1 + p2 <= 418
 R151: p1 - p3 <= -1
 R152: - 2 x1,3_2 - p1 + p3 >= 0
 R153: 354 x1,3_2 - p1 + p3 <= 356
 R154: - 13 x1,3_13 - p1 + p3 >= 0
 R155: 354 x1,3_13 - p1 + p3 <= 367
 R156: - 20 x1,3_20 - p1 + p3 >= 0
 R157: 354 x1,3_20 - p1 + p3 <= 374
 R158: - 22 x1,3_22 - p1 + p3 >= 0
 R159: 354 x1,3_22 - p1 + p3 <= 376
 R160: - 29 x1,3_29 - p1 + p3 >= 0
 R161: 354 x1,3_29 - p1 + p3 <= 383
 R162: - 42 x1,3_42 - p1 + p3 >= 0
 R163: 354 x1,3_42 - p1 + p3 <= 396
 R164: - 49 x1,3_49 - p1 + p3 >= 0
 R165: 354 x1,3_49 - p1 + p3 <= 403
 R166: - 51 x1,3_51 - p1 + p3 >= 0
 R167: 354 x1,3_51 - p1 + p3 <= 405
 R168: - 62 x1,3_62 - p1 + p3 >= 0
 R169: 354 x1,3_62 - p1 + p3 <= 416
 R170: - 64 x1,3_64 - p1 + p3 >= 0
 R171: 354 x1,3_64 - p1 + p3 <= 418
 R172: p1 - p4 <= -1
 R173: - 2 x1,4_2 - p1 + p4 >= 0
 R174: 354 x1,4_2 - p1 + p4 <= 356
 R175: - 13 x1,4_13 - p1 + p4 >= 0
 R176: 354 x1,4_13 - p1 + p4 <= 367
 R177: - 20 x1,4_20 - p1 + p4 >= 0
 R178: 354 x1,4_20 - p1 + p4 <= 374
 R179: - 22 x1,4_22 - p1 + p4 >= 0
 R180: 354 x1,4_22 - p1 + p4 <= 376
 R181: - 29 x1,4_29 - p1 + p4 >= 0
 R182: 354 x1,4_29 - p1 + p4 <= 383
 R183: - 42 x1,4_42 - p1 + p4 >= 0
 R184: 354 x1,4_42 - p1 + p4 <= 396
 R185: - 49 x1,4_49 - p1 + p4 >= 0
 R186: 354 x1,4_49 - p1 + p4 <= 403
 R187: - 51 x1,4_51 - p1 + p4 >= 0
 R188: 354 x1,4_51 - p1 + p4 <= 405
 R189: - 62 x1,4_62 - p1 + p4 >= 0
 R190: 354 x1,4_62 - p1 + p4 <= 416
 R191: - 64 x1,4_64 - p1 + p4 >= 0
 R192: 354 x1,4_64 - p1 + p4 <= 418
 R193: p1 - p5 <= -1
 R194: - 2 x1,5_2 - p1 + p5 >= 0
 R195: 354 x1,5_2 - p1 + p5 <= 356
 R196: - 13 x1,5_13 - p1 + p5 >= 0
 R197: 354 x1,5_13 - p1 + p5 <= 367
 R198: - 20 x1,5_20 - p1 + p5 >= 0
 R199: 354 x1,5_20 - p1 + p5 <= 374
 R200: - 22 x1,5_22 - p1 + p5 >= 0
 R201: 354 x1,5_22 - p1 + p5 <= 376
 R202: - 29 x1,5_29 - p1 + p5 >= 0
 R203: 354 x1,5_29 - p1 + p5 <= 383
 R204: - 42 x1,5_42 - p1 + p5 >= 0
 R205: 354 x1,5_42 - p1 + p5 <= 396
 R206: - 49 x1,5_49 - p1 + p5 >= 0
 R207: 354 x1,5_49 - p1 + p5 <= 403
 R208: - 51 x1,5_51 - p1 + p5 >= 0
 R209: 354 x1,5_51 - p1 + p5 <= 405
 R210: - 62 x1,5_62 - p1 + p5 >= 0
 R211: 354 x1,5_62 - p1 + p5 <= 416
 R212: - 64 x1,5_64 - p1 + p5 >= 0
 R213: 354 x1,5_64 - p1 + p5 <= 418
 R214: p2 - p3 <= -1
 R215: - 2 x2,3_2 - p2 + p3 >= 0
 R216: 354 x2,3_2 - p2 + p3 <= 356
 R217: - 13 x2,3_13 - p2 + p3 >= 0
 R218: 354 x2,3_13 - p2 + p3 <= 367
 R219: - 20 x2,3_20 - p2 + p3 >= 0
 R220: 354 x2,3_20 - p2 + p3 <= 374
 R221: - 22 x2,3_22 - p2 + p3 >= 0
 R222: 354 x2,3_22 - p2 + p3 <= 376
 R223: - 29 x2,3_29 - p2 + p3 >= 0
 R224: 354 x2,3_29 - p2 + p3 <= 383
 R225: - 42 x2,3_42 - p2 + p3 >= 0
 R226: 354 x2,3_42 - p2 + p3 <= 396
 R227: - 49 x2,3_49 - p2 + p3 >= 0
 R228: 354 x2,3_49 - p2 + p3 <= 403
 R229: - 51 x2,3_51 - p2 + p3 >= 0
 R230: 354 x2,3_51 - p2 + p3 <= 405
 R231: - 62 x2,3_62 - p2 + p3 >= 0
 R232: 354 x2,3_62 - p2 + p3 <= 416
 R233: - 64 x2,3_64 - p2 + p3 >= 0
 R234: 354 x2,3_64 - p2 + p3 <= 418
 R235: p2 - p4 <= -1
 R236: - 2 x2,4_2 - p2 + p4 >= 0
 R237: 354 x2,4_2 - p2 + p4 <= 356
 R238: - 13 x2,4_13 - p2 + p4 >= 0
 R239: 354 x2,4_13 - p2 + p4 <= 367
 R240: - 20 x2,4_20 - p2 + p4 >= 0
 R241: 354 x2,4_20 - p2 + p4 <= 374
 R242: - 22 x2,4_22 - p2 + p4 >= 0
 R243: 354 x2,4_22 - p2 + p4 <= 376
 R244: - 29 x2,4_29 - p2 + p4 >= 0
 R245: 354 x2,4_29 - p2 + p4 <= 383
 R246: - 42 x2,4_42 - p2 + p4 >= 0
 R247: 354 x2,4_42 - p2 + p4 <= 396
 R248: - 49 x2,4_49 - p2 + p4 >= 0
 R249: 354 x2,4_49 - p2 + p4 <= 403
 R250: - 51 x2,4_51 - p2 + p4 >= 0
 R251: 354 x2,4_51 - p2 + p4 <= 405
 R252: - 62 x2,4_62 - p2 + p4 >= 0
 R253: 354 x2,4_62 - p2 + p4 <= 416
 R254: - 64 x2,4_64 - p2 + p4 >= 0
 R255: 354 x2,4_64 - p2 + p4 <= 418
 R256: p2 - p5 <= -1
 R257: - 2 x2,5_2 - p2 + p5 >= 0
 R258: 354 x2,5_2 - p2 + p5 <= 356
 R259: - 13 x2,5_13 - p2 + p5 >= 0
 R260: 354 x2,5_13 - p2 + p5 <= 367
 R261: - 20 x2,5_20 - p2 + p5 >= 0
 R262: 354 x2,5_20 - p2 + p5 <= 374
 R263: - 22 x2,5_22 - p2 + p5 >= 0
 R264: 354 x2,5_22 - p2 + p5 <= 376
 R265: - 29 x2,5_29 - p2 + p5 >= 0
 R266: 354 x2,5_29 - p2 + p5 <= 383
 R267: - 42 x2,5_42 - p2 + p5 >= 0
 R268: 354 x2,5_42 - p2 + p5 <= 396
 R269: - 49 x2,5_49 - p2 + p5 >= 0
 R270: 354 x2,5_49 - p2 + p5 <= 403
 R271: - 51 x2,5_51 - p2 + p5 >= 0
 R272: 354 x2,5_51 - p2 + p5 <= 405
 R273: - 62 x2,5_62 - p2 + p5 >= 0
 R274: 354 x2,5_62 - p2 + p5 <= 416
 R275: - 64 x2,5_64 - p2 + p5 >= 0
 R276: 354 x2,5_64 - p2 + p5 <= 418
 R277: p3 - p4 <= -1
 R278: - 2 x3,4_2 - p3 + p4 >= 0
 R279: 354 x3,4_2 - p3 + p4 <= 356
 R280: - 13 x3,4_13 - p3 + p4 >= 0
 R281: 354 x3,4_13 - p3 + p4 <= 367
 R282: - 20 x3,4_20 - p3 + p4 >= 0
 R283: 354 x3,4_20 - p3 + p4 <= 374
 R284: - 22 x3,4_22 - p3 + p4 >= 0
 R285: 354 x3,4_22 - p3 + p4 <= 376
 R286: - 29 x3,4_29 - p3 + p4 >= 0
 R287: 354 x3,4_29 - p3 + p4 <= 383
 R288: - 42 x3,4_42 - p3 + p4 >= 0
 R289: 354 x3,4_42 - p3 + p4 <= 396
 R290: - 49 x3,4_49 - p3 + p4 >= 0
 R291: 354 x3,4_49 - p3 + p4 <= 403
 R292: - 51 x3,4_51 - p3 + p4 >= 0
 R293: 354 x3,4_51 - p3 + p4 <= 405
 R294: - 62 x3,4_62 - p3 + p4 >= 0
 R295: 354 x3,4_62 - p3 + p4 <= 416
 R296: - 64 x3,4_64 - p3 + p4 >= 0
 R297: 354 x3,4_64 - p3 + p4 <= 418
 R298: p3 - p5 <= -1
 R299: - 2 x3,5_2 - p3 + p5 >= 0
 R300: 354 x3,5_2 - p3 + p5 <= 356
 R301: - 13 x3,5_13 - p3 + p5 >= 0
 R302: 354 x3,5_13 - p3 + p5 <= 367
 R303: - 20 x3,5_20 - p3 + p5 >= 0
 R304: 354 x3,5_20 - p3 + p5 <= 374
 R305: - 22 x3,5_22 - p3 + p5 >= 0
 R306: 354 x3,5_22 - p3 + p5 <= 376
 R307: - 29 x3,5_29 - p3 + p5 >= 0
 R308: 354 x3,5_29 - p3 + p5 <= 383
 R309: - 42 x3,5_42 - p3 + p5 >= 0
 R310: 354 x3,5_42 - p3 + p5 <= 396
 R311: - 49 x3,5_49 - p3 + p5 >= 0
 R312: 354 x3,5_49 - p3 + p5 <= 403
 R313: - 51 x3,5_51 - p3 + p5 >= 0
 R314: 354 x3,5_51 - p3 + p5 <= 405
 R315: - 62 x3,5_62 - p3 + p5 >= 0
 R316: 354 x3,5_62 - p3 + p5 <= 416
 R317: - 64 x3,5_64 - p3 + p5 >= 0
 R318: 354 x3,5_64 - p3 + p5 <= 418
 R319: p4 - p5 <= -1
 R320: - 2 x4,5_2 - p4 + p5 >= 0
 R321: 354 x4,5_2 - p4 + p5 <= 356
 R322: - 13 x4,5_13 - p4 + p5 >= 0
 R323: 354 x4,5_13 - p4 + p5 <= 367
 R324: - 20 x4,5_20 - p4 + p5 >= 0
 R325: 354 x4,5_20 - p4 + p5 <= 374
 R326: - 22 x4,5_22 - p4 + p5 >= 0
 R327: 354 x4,5_22 - p4 + p5 <= 376
 R328: - 29 x4,5_29 - p4 + p5 >= 0
 R329: 354 x4,5_29 - p4 + p5 <= 383
 R330: - 42 x4,5_42 - p4 + p5 >= 0
 R331: 354 x4,5_42 - p4 + p5 <= 396
 R332: - 49 x4,5_49 - p4 + p5 >= 0
 R333: 354 x4,5_49 - p4 + p5 <= 403
 R334: - 51 x4,5_51 - p4 + p5 >= 0
 R335: 354 x4,5_51 - p4 + p5 <= 405
 R336: - 62 x4,5_62 - p4 + p5 >= 0
 R337: 354 x4,5_62 - p4 + p5 <= 416
 R338: - 64 x4,5_64 - p4 + p5 >= 0
 R339: 354 x4,5_64 - p4 + p5 <= 418
Bounds
Binaries
 x0,1_2 x0,1_13 x0,1_20 x0,1_22 x0,1_29 x0,1_42 x0,1_49 x0,1_51 x0,1_62
 x0,1_64 x0,2_2 x0,2_13 x0,2_20 x0,2_22 x0,2_29 x0,2_42 x0,2_49 x0,2_51
 x0,2_62 x0,2_64 x0,3_2 x0,3_13 x0,3_20 x0,3_22 x0,3_29 x0,3_42 x0,3_49
 x0,3_51 x0,3_62 x0,3_64 x0,4_2 x0,4_13 x0,4_20 x0,4_22 x0,4_29 x0,4_42
 x0,4_49 x0,4_51 x0,4_62 x0,4_64 x0,5_2 x0,5_13 x0,5_20 x0,5_22 x0,5_29
 x0,5_42 x0,5_49 x0,5_51 x0,5_62 x0,5_64 x1,2_2 x1,2_13 x1,2_20 x1,2_22
 x1,2_29 x1,2_42 x1,2_49 x1,2_51 x1,2_62 x1,2_64 x1,3_2 x1,3_13 x1,3_20
 x1,3_22 x1,3_29 x1,3_42 x1,3_49 x1,3_51 x1,3_62 x1,3_64 x1,4_2 x1,4_13
 x1,4_20 x1,4_22 x1,4_29 x1,4_42 x1,4_49 x1,4_51 x1,4_62 x1,4_64 x1,5_2
 x1,5_13 x1,5_20 x1,5_22 x1,5_29 x1,5_42 x1,5_49 x1,5_51 x1,5_62 x1,5_64
 x2,3_2 x2,3_13 x2,3_20 x2,3_22 x2,3_29 x2,3_42 x2,3_49 x2,3_51 x2,3_62
 x2,3_64 x2,4_2 x2,4_13 x2,4_20 x2,4_22 x2,4_29 x2,4_42 x2,4_49 x2,4_51
 x2,4_62 x2,4_64 x2,5_2 x2,5_13 x2,5_20 x2,5_22 x2,5_29 x2,5_42 x2,5_49
 x2,5_51 x2,5_62 x2,5_64 x3,4_2 x3,4_13 x3,4_20 x3,4_22 x3,4_29 x3,4_42
 x3,4_49 x3,4_51 x3,4_62 x3,4_64 x3,5_2 x3,5_13 x3,5_20 x3,5_22 x3,5_29
 x3,5_42 x3,5_49 x3,5_51 x3,5_62 x3,5_64 x4,5_2 x4,5_13 x4,5_20 x4,5_22
 x4,5_29 x4,5_42 x4,5_49 x4,5_51 x4,5_62 x4,5_64
Generals
 p0 p1 p2 p3 p4 p5
End
