logs/full/max/full-05-30-2.sol
# Objective value = 10
x0,1_2 0
x0,1_13 0
x0,1_20 0
x0,1_22 0
x0,1_29 0
x0,1_42 0
x0,1_49 0
x0,1_51 0
x0,1_62 0
x0,1_64 0
x0,2_2 1
x0,2_13 0
x0,2_20 0
x0,2_22 0
x0,2_29 0
x0,2_42 0
x0,2_49 0
x0,2_51 0
x0,2_62 0
x0,2_64 0
x0,3_2 0
x0,3_13 0
x0,3_20 0
x0,3_22 1
x0,3_29 0
x0,3_42 0
x0,3_49 0
x0,3_51 0
x0,3_62 0
x0,3_64 0
x0,4_2 0
x0,4_13 0
x0,4_20 0
x0,4_22 0
x0,4_29 0
x0,4_42 0
x0,4_49 0
x0,4_51 1
x0,4_62 0
x0,4_64 0
x0,5_2 0
x0,5_13 0
x0,5_20 0
x0,5_22 0
x0,5_29 0
x0,5_42 0
x0,5_49 0
x0,5_51 0
x0,5_62 0
x0,5_64 1
x1,2_2 0
x1,2_13 0
x1,2_20 0
x1,2_22 0
x1,2_29 0
x1,2_42 0
x1,2_49 0
x1,2_51 0
x1,2_62 0
x1,2_64 0
x1,3_2 0
x1,3_13 0
x1,3_20 0
x1,3_22 0
x1,3_29 0
x1,3_42 0
x1,3_49 0
x1,3_51 0
x1,3_62 0
x1,3_64 0
x1,4_2 0
x1,4_13 0
x1,4_20 0
x1,4_22 0
x1,4_29 0
x1,4_42 0
x1,4_49 0
x1,4_51 0
x1,4_62 0
x1,4_64 0
x1,5_2 0
x1,5_13 0
x1,5_20 0
x1,5_22 0
x1,5_29 0
x1,5_42 0
x1,5_49 0
x1,5_51 0
x1,5_62 0
x1,5_64 0
x2,3_2 0
x2,3_13 0
x2,3_20 1
x2,3_22 0
x2,3_29 0
x2,3_42 0
x2,3_49 0
x2,3_51 0
x2,3_62 0
x2,3_64 0
x2,4_2 0
x2,4_13 0
x2,4_20 0
x2,4_22 0
x2,4_29 0
x2,4_42 0
x2,4_49 1
x2,4_51 0
x2,4_62 0
x2,4_64 0
x2,5_2 0
x2,5_13 0
x2,5_20 0
x2,5_22 0
x2,5_29 0
x2,5_42 0
x2,5_49 0
x2,5_51 0
x2,5_62 1
x2,5_64 0
x3,4_2 0
x3,4_13 0
x3,4_20 0
x3,4_22 0
x3,4_29 1
x3,4_42 0
x3,4_49 0
x3,4_51 0
x3,4_62 0
x3,4_64 0
x3,5_2 0
x3,5_13 0
x3,5_20 0
x3,5_22 0
x3,5_29 0
x3,5_42 1
x3,5_49 0
x3,5_51 0
x3,5_62 0
x3,5_64 0
x4,5_2 0
x4,5_13 1
x4,5_20 0
x4,5_22 0
x4,5_29 0
x4,5_42 0
x4,5_49 0
x4,5_51 0
x4,5_62 0
x4,5_64 0
p0 11
p1 12
p2 13
p3 33
p4 62
p5 75
